(set-logic QF_NRA)
(set-info :source |Benchmarks generated from hycomp (https://es-static.fbk.eu/tools/hycomp/). BMC instances of non-linear hybrid automata taken from: Alessandro Cimatti, Sergio Mover, Stefano Tonetta, A quantifier-free SMT encoding of non-linear hybrid automata, FMCAD 2012 and Alessandro Cimatti, Sergio Mover, Stefano Tonetta, Quantier-free encoding of invariants for Hybrid Systems, Formal Methods in System Design. This instance solves a BMC problem of depth 1 and uses the quantifier free encoding with equivalences encoding. Contacts: Sergio Mover (mover@fbk.eu), Stefano Tonetta (tonettas@fbk.eu), Alessandro Cimatti (cimatti@fbk.eu).|)
(set-info :smt-lib-version 2.0)
(set-info :category "industrial")
(set-info :status unsat)
;; MathSAT API call trace
;; generated on Mon Mar 19 10:44:31 2012
(declare-fun b.delta__AT0 () Real)
(declare-fun b.EVENT.0__AT0 () Bool)
(declare-fun b.y__AT1 () Real)
(declare-fun b.counter.0__AT1 () Bool)
(declare-fun b.counter.1__AT1 () Bool)
(declare-fun b.counter.2__AT1 () Bool)
(declare-fun speed_loss__AT0 () Real)
(declare-fun b.counter.3__AT1 () Bool)
(declare-fun b.EVENT.0__AT1 () Bool)
(declare-fun b.EVENT.1__AT1 () Bool)
(declare-fun b.counter.3__AT0 () Bool)
(declare-fun b.x__AT0 () Real)
(declare-fun b.speed_y__AT0 () Real)
(declare-fun b.speed_x__AT0 () Real)
(declare-fun b.x__AT1 () Real)
(declare-fun b.EVENT.1__AT0 () Bool)
(declare-fun b.event_is_timed__AT1 () Bool)
(declare-fun b.time__AT0 () Real)
(declare-fun b.speed_x__AT1 () Real)
(declare-fun b.speed_y__AT1 () Real)
(declare-fun b.y__AT0 () Real)
(declare-fun b.counter.0__AT0 () Bool)
(declare-fun b.counter.1__AT0 () Bool)
(declare-fun g__AT0 () Real)
(declare-fun b.event_is_timed__AT0 () Bool)
(declare-fun b.counter.2__AT0 () Bool)
(declare-fun b.time__AT1 () Real)
(declare-fun b.delta__AT1 () Real)
(assert (let ((.def_78 (* (- 1.0) g__AT0)))
(let ((.def_79 (* (/ 1 2) .def_78)))
(let ((.def_87 (* 2.0 .def_79)))
(let ((.def_268 (* .def_87 b.delta__AT1)))
(let ((.def_269 (+ b.speed_y__AT1 .def_268)))
(let ((.def_273 (<= .def_269 0.0 )))
(let ((.def_272 (<= b.speed_y__AT1 0.0 )))
(let ((.def_274 (and .def_272 .def_273)))
(let ((.def_270 (<= 0.0 .def_269)))
(let ((.def_267 (<= 0.0 b.speed_y__AT1)))
(let ((.def_271 (and .def_267 .def_270)))
(let ((.def_275 (or .def_271 .def_274)))
(let ((.def_262 (* b.speed_y__AT1 b.delta__AT1)))
(let ((.def_260 (* b.delta__AT1 b.delta__AT1)))
(let ((.def_261 (* .def_79 .def_260)))
(let ((.def_263 (+ .def_261 .def_262)))
(let ((.def_264 (+ b.y__AT1 .def_263)))
(let ((.def_265 (<= 0.0 .def_264)))
(let ((.def_247 (<= 0.0 b.y__AT1)))
(let ((.def_266 (and .def_247 .def_265)))
(let ((.def_276 (and .def_266 .def_275)))
(let ((.def_59 (<= g__AT0 10.0 )))
(let ((.def_58 (<= 8.0 g__AT0)))
(let ((.def_60 (and .def_58 .def_59)))
(let ((.def_277 (and .def_60 .def_276)))
(let ((.def_67 (<= speed_loss__AT0 (/ 1 2))))
(let ((.def_64 (<= (/ 1 10) speed_loss__AT0)))
(let ((.def_68 (and .def_64 .def_67)))
(let ((.def_278 (and .def_68 .def_277)))
(let ((.def_34 (not b.counter.0__AT0)))
(let ((.def_32 (not b.counter.1__AT0)))
(let ((.def_35 (and .def_32 .def_34)))
(let ((.def_255 (or .def_35 b.counter.3__AT0)))
(let ((.def_252 (or .def_35 b.counter.2__AT0)))
(let ((.def_37 (not b.counter.2__AT0)))
(let ((.def_251 (or .def_32 .def_37)))
(let ((.def_253 (and .def_251 .def_252)))
(let ((.def_40 (not b.counter.3__AT0)))
(let ((.def_254 (or .def_40 .def_253)))
(let ((.def_256 (and .def_254 .def_255)))
(let ((.def_69 (and .def_60 .def_68)))
(let ((.def_248 (and .def_69 .def_247)))
(let ((.def_244 (not b.EVENT.0__AT1)))
(let ((.def_242 (not b.EVENT.1__AT1)))
(let ((.def_245 (or .def_242 .def_244)))
(let ((.def_9 (not b.counter.0__AT1)))
(let ((.def_6 (not b.counter.1__AT1)))
(let ((.def_235 (or .def_6 .def_9)))
(let ((.def_239 (or b.counter.3__AT1 .def_235)))
(let ((.def_236 (or b.counter.2__AT1 .def_235)))
(let ((.def_4 (not b.counter.2__AT1)))
(let ((.def_234 (or .def_4 .def_9)))
(let ((.def_237 (and .def_234 .def_236)))
(let ((.def_14 (not b.counter.3__AT1)))
(let ((.def_238 (or .def_14 .def_237)))
(let ((.def_240 (and .def_238 .def_239)))
(let ((.def_246 (and .def_240 .def_245)))
(let ((.def_249 (and .def_246 .def_248)))
(let ((.def_229 (<= 0.0 b.delta__AT0)))
(let ((.def_53 (not b.EVENT.0__AT0)))
(let ((.def_51 (not b.EVENT.1__AT0)))
(let ((.def_129 (and .def_51 .def_53)))
(let ((.def_130 (not .def_129)))
(let ((.def_230 (or .def_130 .def_229)))
(let ((.def_231 (or b.EVENT.1__AT0 .def_230)))
(let ((.def_178 (= b.counter.0__AT1 b.counter.0__AT0)))
(let ((.def_176 (= b.counter.1__AT1 b.counter.1__AT0)))
(let ((.def_174 (= b.counter.2__AT1 b.counter.2__AT0)))
(let ((.def_173 (= b.counter.3__AT1 b.counter.3__AT0)))
(let ((.def_175 (and .def_173 .def_174)))
(let ((.def_177 (and .def_175 .def_176)))
(let ((.def_179 (and .def_177 .def_178)))
(let ((.def_226 (or .def_130 .def_179)))
(let ((.def_227 (or b.EVENT.1__AT0 .def_226)))
(let ((.def_186 (= b.x__AT1 b.x__AT0)))
(let ((.def_183 (= b.y__AT0 b.y__AT1)))
(let ((.def_220 (and .def_183 .def_186)))
(let ((.def_111 (= b.speed_x__AT0 b.speed_x__AT1)))
(let ((.def_221 (and .def_111 .def_220)))
(let ((.def_172 (= b.speed_y__AT0 b.speed_y__AT1)))
(let ((.def_222 (and .def_172 .def_221)))
(let ((.def_217 (= b.delta__AT0 0.0 )))
(let ((.def_218 (and .def_129 .def_217)))
(let ((.def_219 (not .def_218)))
(let ((.def_223 (or .def_219 .def_222)))
(let ((.def_224 (or b.EVENT.1__AT0 .def_223)))
(let ((.def_197 (= b.time__AT0 b.time__AT1)))
(let ((.def_209 (and .def_186 .def_197)))
(let ((.def_210 (and .def_183 .def_209)))
(let ((.def_211 (and .def_111 .def_210)))
(let ((.def_212 (and .def_172 .def_211)))
(let ((.def_213 (and .def_179 .def_212)))
(let ((.def_214 (or .def_51 .def_213)))
(let ((.def_200 (* (- 1.0) b.time__AT1)))
(let ((.def_203 (+ b.delta__AT0 .def_200)))
(let ((.def_204 (+ b.time__AT0 .def_203)))
(let ((.def_205 (= .def_204 0.0 )))
(let ((.def_206 (or .def_130 .def_205)))
(let ((.def_207 (or b.EVENT.1__AT0 .def_206)))
(let ((.def_198 (or .def_129 .def_197)))
(let ((.def_199 (or b.EVENT.1__AT0 .def_198)))
(let ((.def_208 (and .def_199 .def_207)))
(let ((.def_215 (and .def_208 .def_214)))
(let ((.def_193 (= .def_130 b.event_is_timed__AT1)))
(let ((.def_191 (= b.event_is_timed__AT0 .def_129)))
(let ((.def_194 (and .def_191 .def_193)))
(let ((.def_180 (and .def_172 .def_179)))
(let ((.def_86 (<= 0.0 b.speed_y__AT0)))
(let ((.def_133 (not .def_86)))
(let ((.def_132 (= b.y__AT0 0.0 )))
(let ((.def_134 (and .def_132 .def_133)))
(let ((.def_181 (or .def_134 .def_180)))
(let ((.def_149 (or .def_9 b.counter.0__AT0)))
(let ((.def_148 (or b.counter.0__AT1 .def_34)))
(let ((.def_150 (and .def_148 .def_149)))
(let ((.def_151 (and .def_6 .def_150)))
(let ((.def_152 (or b.counter.1__AT0 .def_151)))
(let ((.def_147 (or b.counter.1__AT1 .def_32)))
(let ((.def_153 (and .def_147 .def_152)))
(let ((.def_164 (and .def_4 .def_153)))
(let ((.def_165 (or b.counter.2__AT0 .def_164)))
(let ((.def_159 (and .def_6 .def_34)))
(let ((.def_160 (or b.counter.1__AT0 .def_159)))
(let ((.def_161 (and .def_147 .def_160)))
(let ((.def_162 (and b.counter.2__AT1 .def_161)))
(let ((.def_163 (or .def_37 .def_162)))
(let ((.def_166 (and .def_163 .def_165)))
(let ((.def_167 (and b.counter.3__AT1 .def_166)))
(let ((.def_168 (or b.counter.3__AT0 .def_167)))
(let ((.def_154 (and b.counter.2__AT1 .def_153)))
(let ((.def_155 (or b.counter.2__AT0 .def_154)))
(let ((.def_143 (or b.counter.1__AT1 b.counter.1__AT0)))
(let ((.def_141 (and .def_6 b.counter.0__AT1)))
(let ((.def_142 (or .def_32 .def_141)))
(let ((.def_144 (and .def_142 .def_143)))
(let ((.def_145 (and .def_4 .def_144)))
(let ((.def_146 (or .def_37 .def_145)))
(let ((.def_156 (and .def_146 .def_155)))
(let ((.def_157 (and .def_14 .def_156)))
(let ((.def_158 (or .def_40 .def_157)))
(let ((.def_169 (and .def_158 .def_168)))
(let ((.def_137 (* (- 1.0) speed_loss__AT0)))
(let ((.def_138 (+ 1.0 .def_137)))
(let ((.def_136 (* (- 1.0) b.speed_y__AT0)))
(let ((.def_139 (* .def_136 .def_138)))
(let ((.def_140 (= b.speed_y__AT1 .def_139)))
(let ((.def_170 (and .def_140 .def_169)))
(let ((.def_135 (not .def_134)))
(let ((.def_171 (or .def_135 .def_170)))
(let ((.def_182 (and .def_171 .def_181)))
(let ((.def_184 (and .def_182 .def_183)))
(let ((.def_185 (and .def_111 .def_184)))
(let ((.def_187 (and .def_185 .def_186)))
(let ((.def_188 (or .def_129 .def_187)))
(let ((.def_189 (or b.EVENT.1__AT0 .def_188)))
(let ((.def_121 (* (- 1.0) b.y__AT1)))
(let ((.def_81 (* b.speed_y__AT0 b.delta__AT0)))
(let ((.def_124 (+ .def_81 .def_121)))
(let ((.def_76 (* b.delta__AT0 b.delta__AT0)))
(let ((.def_80 (* .def_76 .def_79)))
(let ((.def_125 (+ .def_80 .def_124)))
(let ((.def_126 (+ b.y__AT0 .def_125)))
(let ((.def_127 (= .def_126 0.0 )))
(let ((.def_115 (* (- 1.0) b.speed_y__AT1)))
(let ((.def_113 (* b.delta__AT0 .def_78)))
(let ((.def_116 (+ .def_113 .def_115)))
(let ((.def_117 (+ b.speed_y__AT0 .def_116)))
(let ((.def_118 (= .def_117 0.0 )))
(let ((.def_103 (* (- 1.0) b.x__AT1)))
(let ((.def_107 (+ .def_103 b.x__AT0)))
(let ((.def_101 (* b.delta__AT0 b.speed_x__AT0)))
(let ((.def_108 (+ .def_101 .def_107)))
(let ((.def_109 (= .def_108 0.0 )))
(let ((.def_112 (and .def_109 .def_111)))
(let ((.def_119 (and .def_112 .def_118)))
(let ((.def_128 (and .def_119 .def_127)))
(let ((.def_131 (or .def_128 .def_130)))
(let ((.def_190 (and .def_131 .def_189)))
(let ((.def_195 (and .def_190 .def_194)))
(let ((.def_216 (and .def_195 .def_215)))
(let ((.def_225 (and .def_216 .def_224)))
(let ((.def_228 (and .def_225 .def_227)))
(let ((.def_232 (and .def_228 .def_231)))
(let ((.def_233 (and .def_51 .def_232)))
(let ((.def_250 (and .def_233 .def_249)))
(let ((.def_257 (and .def_250 .def_256)))
(let ((.def_88 (* b.delta__AT0 .def_87)))
(let ((.def_89 (+ b.speed_y__AT0 .def_88)))
(let ((.def_93 (<= .def_89 0.0 )))
(let ((.def_92 (<= b.speed_y__AT0 0.0 )))
(let ((.def_94 (and .def_92 .def_93)))
(let ((.def_90 (<= 0.0 .def_89)))
(let ((.def_91 (and .def_86 .def_90)))
(let ((.def_95 (or .def_91 .def_94)))
(let ((.def_82 (+ .def_80 .def_81)))
(let ((.def_83 (+ b.y__AT0 .def_82)))
(let ((.def_84 (<= 0.0 .def_83)))
(let ((.def_70 (<= 0.0 b.y__AT0)))
(let ((.def_85 (and .def_70 .def_84)))
(let ((.def_96 (and .def_85 .def_95)))
(let ((.def_97 (and .def_60 .def_96)))
(let ((.def_98 (and .def_68 .def_97)))
(let ((.def_71 (and .def_69 .def_70)))
(let ((.def_54 (or .def_51 .def_53)))
(let ((.def_44 (or .def_32 .def_34)))
(let ((.def_48 (or b.counter.3__AT0 .def_44)))
(let ((.def_45 (or b.counter.2__AT0 .def_44)))
(let ((.def_43 (or .def_34 .def_37)))
(let ((.def_46 (and .def_43 .def_45)))
(let ((.def_47 (or .def_40 .def_46)))
(let ((.def_49 (and .def_47 .def_48)))
(let ((.def_55 (and .def_49 .def_54)))
(let ((.def_72 (and .def_55 .def_71)))
(let ((.def_38 (and .def_35 .def_37)))
(let ((.def_41 (and .def_38 .def_40)))
(let ((.def_29 (= b.speed_y__AT0 0.0 )))
(let ((.def_26 (= b.y__AT0 10.0 )))
(let ((.def_21 (= b.time__AT0 0.0 )))
(let ((.def_23 (and .def_21 b.event_is_timed__AT0)))
(let ((.def_27 (and .def_23 .def_26)))
(let ((.def_30 (and .def_27 .def_29)))
(let ((.def_42 (and .def_30 .def_41)))
(let ((.def_73 (and .def_42 .def_72)))
(let ((.def_10 (and .def_6 .def_9)))
(let ((.def_16 (or .def_10 b.counter.3__AT1)))
(let ((.def_11 (or b.counter.2__AT1 .def_10)))
(let ((.def_7 (or .def_4 .def_6)))
(let ((.def_12 (and .def_7 .def_11)))
(let ((.def_15 (or .def_12 .def_14)))
(let ((.def_17 (and .def_15 .def_16)))
(let ((.def_18 (not .def_17)))
(let ((.def_74 (and .def_18 .def_73)))
(let ((.def_99 (and .def_74 .def_98)))
(let ((.def_258 (and .def_99 .def_257)))
(let ((.def_279 (and .def_258 .def_278)))
.def_279))))))))))))))))))))))))))))))))))))))))))))))))))))))))))))))))))))))))))))))))))))))))))))))))))))))))))))))))))))))))))))))))))))))))))))))))))))))))))))))))))))))))))))))))))))))))))))))))))))))))))))))))))))))))))))))))))))))))))))
(check-sat)
(exit)
